% Instance for pentominoes model generated using https://github.com/zayenz/minizinc-pentominoes-generator
% Instance generated for board size 15 with 10 tiles using 17 as seed
% Generated board
%    666669999998888
%    677669999988888
%    777669999988888
%    7777699998888bb
%    7777699333bbbbb
%    7777993333bbbbb
%    71722333333bbbb
%    1112233333bbbbb
%    1112243333bbbbb
%    1122244333bbbbb
%    1122144433bbbbb
%    1111144555bbbbb
%    11111155555bbbb
%    11111155555555b
%    111111555555555

size = 15;
tiles = 10;
expressions = [
    "( ([2 3 4 5 6 7 8 9 10 11]* 1{1} [2 3 4 5 6 7 8 9 10 11]{13} [2 3 4 5 6 7 8 9 10 11] 1{3} [2 3 4 5 6 7 8 9 10 11]{12} [2 3 4 5 6 7 8 9 10 11] 1{3} [2 3 4 5 6 7 8 9 10 11]{12} [2 3 4 5 6 7 8 9 10 11] 1{2} [2 3 4 5 6 7 8 9 10 11]{13} [2 3 4 5 6 7 8 9 10 11] 1{2} [2 3 4 5 6 7 8 9 10 11]{2} 1{1} [2 3 4 5 6 7 8 9 10 11]{10} [2 3 4 5 6 7 8 9 10 11] 1{5} [2 3 4 5 6 7 8 9 10 11]{10} [2 3 4 5 6 7 8 9 10 11] 1{6} [2 3 4 5 6 7 8 9 10 11]{9} [2 3 4 5 6 7 8 9 10 11] 1{6} [2 3 4 5 6 7 8 9 10 11]{9} [2 3 4 5 6 7 8 9 10 11] 1{6} [2 3 4 5 6 7 8 9 10 11]*) | ([2 3 4 5 6 7 8 9 10 11]* 1{8} [2 3 4 5 6 7 8 9 10 11]{7} [2 3 4 5 6 7 8 9 10 11] 1{9} [2 3 4 5 6 7 8 9 10 11]{6} [2 3 4 5 6 7 8 9 10 11] 1{4} [2 3 4 5 6 7 8 9 10 11]{2} 1{2} [2 3 4 5 6 7 8 9 10 11]{7} [2 3 4 5 6 7 8 9 10 11] 1{4} [2 3 4 5 6 7 8 9 10 11]{11} [2 3 4 5 6 7 8 9 10 11] 1{5} [2 3 4 5 6 7 8 9 10 11]{10} [2 3 4 5 6 7 8 9 10 11] 1{3} [2 3 4 5 6 7 8 9 10 11]*) | ([2 3 4 5 6 7 8 9 10 11]* 1{6} [2 3 4 5 6 7 8 9 10 11] [2 3 4 5 6 7 8 9 10 11]{9} 1{6} [2 3 4 5 6 7 8 9 10 11] [2 3 4 5 6 7 8 9 10 11]{9} 1{6} [2 3 4 5 6 7 8 9 10 11] [2 3 4 5 6 7 8 9 10 11]{10} 1{5} [2 3 4 5 6 7 8 9 10 11] [2 3 4 5 6 7 8 9 10 11]{10} 1{1} [2 3 4 5 6 7 8 9 10 11]{2} 1{2} [2 3 4 5 6 7 8 9 10 11] [2 3 4 5 6 7 8 9 10 11]{13} 1{2} [2 3 4 5 6 7 8 9 10 11] [2 3 4 5 6 7 8 9 10 11]{12} 1{3} [2 3 4 5 6 7 8 9 10 11] [2 3 4 5 6 7 8 9 10 11]{12} 1{3} [2 3 4 5 6 7 8 9 10 11] [2 3 4 5 6 7 8 9 10 11]{13} 1{1} [2 3 4 5 6 7 8 9 10 11]*) | ([2 3 4 5 6 7 8 9 10 11]* 1{3} [2 3 4 5 6 7 8 9 10 11] [2 3 4 5 6 7 8 9 10 11]{10} 1{5} [2 3 4 5 6 7 8 9 10 11] [2 3 4 5 6 7 8 9 10 11]{11} 1{4} [2 3 4 5 6 7 8 9 10 11] [2 3 4 5 6 7 8 9 10 11]{7} 1{2} [2 3 4 5 6 7 8 9 10 11]{2} 1{4} [2 3 4 5 6 7 8 9 10 11] [2 3 4 5 6 7 8 9 10 11]{6} 1{9} [2 3 4 5 6 7 8 9 10 11] [2 3 4 5 6 7 8 9 10 11]{7} 1{8} [2 3 4 5 6 7 8 9 10 11]*) | ([2 3 4 5 6 7 8 9 10 11]* 1{1} [2 3 4 5 6 7 8 9 10 11]{1} [2 3 4 5 6 7 8 9 10 11] [2 3 4 5 6 7 8 9 10 11]{12} 1{3} [2 3 4 5 6 7 8 9 10 11] [2 3 4 5 6 7 8 9 10 11]{12} 1{3} [2 3 4 5 6 7 8 9 10 11] [2 3 4 5 6 7 8 9 10 11]{13} 1{2} [2 3 4 5 6 7 8 9 10 11] [2 3 4 5 6 7 8 9 10 11]{10} 1{1} [2 3 4 5 6 7 8 9 10 11]{2} 1{2} [2 3 4 5 6 7 8 9 10 11] [2 3 4 5 6 7 8 9 10 11]{10} 1{5} [2 3 4 5 6 7 8 9 10 11] [2 3 4 5 6 7 8 9 10 11]{9} 1{6} [2 3 4 5 6 7 8 9 10 11] [2 3 4 5 6 7 8 9 10 11]{9} 1{6} [2 3 4 5 6 7 8 9 10 11] [2 3 4 5 6 7 8 9 10 11]{9} 1{6} [2 3 4 5 6 7 8 9 10 11]*) | ([2 3 4 5 6 7 8 9 10 11]* 1{8} [2 3 4 5 6 7 8 9 10 11] [2 3 4 5 6 7 8 9 10 11]{6} 1{9} [2 3 4 5 6 7 8 9 10 11] [2 3 4 5 6 7 8 9 10 11]{7} 1{2} [2 3 4 5 6 7 8 9 10 11]{2} 1{4} [2 3 4 5 6 7 8 9 10 11] [2 3 4 5 6 7 8 9 10 11]{11} 1{4} [2 3 4 5 6 7 8 9 10 11] [2 3 4 5 6 7 8 9 10 11]{10} 1{5} [2 3 4 5 6 7 8 9 10 11] [2 3 4 5 6 7 8 9 10 11]{12} 1{3} [2 3 4 5 6 7 8 9 10 11]*) | ([2 3 4 5 6 7 8 9 10 11]* 1{6} [2 3 4 5 6 7 8 9 10 11]{9} [2 3 4 5 6 7 8 9 10 11] 1{6} [2 3 4 5 6 7 8 9 10 11]{9} [2 3 4 5 6 7 8 9 10 11] 1{6} [2 3 4 5 6 7 8 9 10 11]{9} [2 3 4 5 6 7 8 9 10 11] 1{5} [2 3 4 5 6 7 8 9 10 11]{10} [2 3 4 5 6 7 8 9 10 11] 1{2} [2 3 4 5 6 7 8 9 10 11]{2} 1{1} [2 3 4 5 6 7 8 9 10 11]{10} [2 3 4 5 6 7 8 9 10 11] 1{2} [2 3 4 5 6 7 8 9 10 11]{13} [2 3 4 5 6 7 8 9 10 11] 1{3} [2 3 4 5 6 7 8 9 10 11]{12} [2 3 4 5 6 7 8 9 10 11] 1{3} [2 3 4 5 6 7 8 9 10 11]{12} [2 3 4 5 6 7 8 9 10 11] [2 3 4 5 6 7 8 9 10 11]{1} 1{1} [2 3 4 5 6 7 8 9 10 11]*) | ([2 3 4 5 6 7 8 9 10 11]* 1{3} [2 3 4 5 6 7 8 9 10 11]{12} [2 3 4 5 6 7 8 9 10 11] 1{5} [2 3 4 5 6 7 8 9 10 11]{10} [2 3 4 5 6 7 8 9 10 11] 1{4} [2 3 4 5 6 7 8 9 10 11]{11} [2 3 4 5 6 7 8 9 10 11] 1{4} [2 3 4 5 6 7 8 9 10 11]{2} 1{2} [2 3 4 5 6 7 8 9 10 11]{7} [2 3 4 5 6 7 8 9 10 11] 1{9} [2 3 4 5 6 7 8 9 10 11]{6} [2 3 4 5 6 7 8 9 10 11] 1{8} [2 3 4 5 6 7 8 9 10 11]*) )",
    "( ([1 3 4 5 6 7 8 9 10 11]* 2{2} [1 3 4 5 6 7 8 9 10 11]{10} [1 3 4 5 6 7 8 9 10 11] [1 3 4 5 6 7 8 9 10 11]{3} 2{2} [1 3 4 5 6 7 8 9 10 11]{10} [1 3 4 5 6 7 8 9 10 11] [1 3 4 5 6 7 8 9 10 11]{3} 2{2} [1 3 4 5 6 7 8 9 10 11]{10} [1 3 4 5 6 7 8 9 10 11] [1 3 4 5 6 7 8 9 10 11]{2} 2{3} [1 3 4 5 6 7 8 9 10 11]{10} [1 3 4 5 6 7 8 9 10 11] [1 3 4 5 6 7 8 9 10 11]{2} 2{2} [1 3 4 5 6 7 8 9 10 11]*) | ([1 3 4 5 6 7 8 9 10 11]* 2{2} [1 3 4 5 6 7 8 9 10 11]{9} [1 3 4 5 6 7 8 9 10 11] [1 3 4 5 6 7 8 9 10 11]{4} 2{5} [1 3 4 5 6 7 8 9 10 11]{6} [1 3 4 5 6 7 8 9 10 11] [1 3 4 5 6 7 8 9 10 11]{5} 2{4} [1 3 4 5 6 7 8 9 10 11]*) | ([1 3 4 5 6 7 8 9 10 11]* 2{2} [1 3 4 5 6 7 8 9 10 11]{2} [1 3 4 5 6 7 8 9 10 11] [1 3 4 5 6 7 8 9 10 11]{10} 2{3} [1 3 4 5 6 7 8 9 10 11]{2} [1 3 4 5 6 7 8 9 10 11] [1 3 4 5 6 7 8 9 10 11]{10} 2{2} [1 3 4 5 6 7 8 9 10 11]{3} [1 3 4 5 6 7 8 9 10 11] [1 3 4 5 6 7 8 9 10 11]{10} 2{2} [1 3 4 5 6 7 8 9 10 11]{3} [1 3 4 5 6 7 8 9 10 11] [1 3 4 5 6 7 8 9 10 11]{10} 2{2} [1 3 4 5 6 7 8 9 10 11]*) | ([1 3 4 5 6 7 8 9 10 11]* 2{4} [1 3 4 5 6 7 8 9 10 11]{5} [1 3 4 5 6 7 8 9 10 11] [1 3 4 5 6 7 8 9 10 11]{6} 2{5} [1 3 4 5 6 7 8 9 10 11]{4} [1 3 4 5 6 7 8 9 10 11] [1 3 4 5 6 7 8 9 10 11]{9} 2{2} [1 3 4 5 6 7 8 9 10 11]*) | ([1 3 4 5 6 7 8 9 10 11]* 2{2} [1 3 4 5 6 7 8 9 10 11]{3} [1 3 4 5 6 7 8 9 10 11] [1 3 4 5 6 7 8 9 10 11]{10} 2{2} [1 3 4 5 6 7 8 9 10 11]{3} [1 3 4 5 6 7 8 9 10 11] [1 3 4 5 6 7 8 9 10 11]{10} 2{2} [1 3 4 5 6 7 8 9 10 11]{3} [1 3 4 5 6 7 8 9 10 11] [1 3 4 5 6 7 8 9 10 11]{10} 2{3} [1 3 4 5 6 7 8 9 10 11]{2} [1 3 4 5 6 7 8 9 10 11] [1 3 4 5 6 7 8 9 10 11]{11} 2{2} [1 3 4 5 6 7 8 9 10 11]*) | ([1 3 4 5 6 7 8 9 10 11]* 2{2} [1 3 4 5 6 7 8 9 10 11]{4} [1 3 4 5 6 7 8 9 10 11] [1 3 4 5 6 7 8 9 10 11]{6} 2{5} [1 3 4 5 6 7 8 9 10 11]{4} [1 3 4 5 6 7 8 9 10 11] [1 3 4 5 6 7 8 9 10 11]{6} 2{4} [1 3 4 5 6 7 8 9 10 11]*) | ([1 3 4 5 6 7 8 9 10 11]* 2{2} [1 3 4 5 6 7 8 9 10 11]{11} [1 3 4 5 6 7 8 9 10 11] [1 3 4 5 6 7 8 9 10 11]{2} 2{3} [1 3 4 5 6 7 8 9 10 11]{10} [1 3 4 5 6 7 8 9 10 11] [1 3 4 5 6 7 8 9 10 11]{3} 2{2} [1 3 4 5 6 7 8 9 10 11]{10} [1 3 4 5 6 7 8 9 10 11] [1 3 4 5 6 7 8 9 10 11]{3} 2{2} [1 3 4 5 6 7 8 9 10 11]{10} [1 3 4 5 6 7 8 9 10 11] [1 3 4 5 6 7 8 9 10 11]{3} 2{2} [1 3 4 5 6 7 8 9 10 11]*) | ([1 3 4 5 6 7 8 9 10 11]* 2{4} [1 3 4 5 6 7 8 9 10 11]{6} [1 3 4 5 6 7 8 9 10 11] [1 3 4 5 6 7 8 9 10 11]{4} 2{5} [1 3 4 5 6 7 8 9 10 11]{6} [1 3 4 5 6 7 8 9 10 11] [1 3 4 5 6 7 8 9 10 11]{4} 2{2} [1 3 4 5 6 7 8 9 10 11]*) )",
    "( ([1 2 4 5 6 7 8 9 10 11]* 3{3} [1 2 4 5 6 7 8 9 10 11]{5} [1 2 4 5 6 7 8 9 10 11] [1 2 4 5 6 7 8 9 10 11]{6} 3{4} [1 2 4 5 6 7 8 9 10 11]{5} [1 2 4 5 6 7 8 9 10 11] [1 2 4 5 6 7 8 9 10 11]{5} 3{6} [1 2 4 5 6 7 8 9 10 11]{4} [1 2 4 5 6 7 8 9 10 11] [1 2 4 5 6 7 8 9 10 11]{5} 3{5} [1 2 4 5 6 7 8 9 10 11]{5} [1 2 4 5 6 7 8 9 10 11] [1 2 4 5 6 7 8 9 10 11]{6} 3{4} [1 2 4 5 6 7 8 9 10 11]{5} [1 2 4 5 6 7 8 9 10 11] [1 2 4 5 6 7 8 9 10 11]{7} 3{3} [1 2 4 5 6 7 8 9 10 11]{5} [1 2 4 5 6 7 8 9 10 11] [1 2 4 5 6 7 8 9 10 11]{8} 3{2} [1 2 4 5 6 7 8 9 10 11]*) | ([1 2 4 5 6 7 8 9 10 11]* 3{2} [1 2 4 5 6 7 8 9 10 11]{6} [1 2 4 5 6 7 8 9 10 11] [1 2 4 5 6 7 8 9 10 11]{6} 3{4} [1 2 4 5 6 7 8 9 10 11]{5} [1 2 4 5 6 7 8 9 10 11] [1 2 4 5 6 7 8 9 10 11]{5} 3{6} [1 2 4 5 6 7 8 9 10 11]{4} [1 2 4 5 6 7 8 9 10 11] [1 2 4 5 6 7 8 9 10 11]{4} 3{7} [1 2 4 5 6 7 8 9 10 11]{4} [1 2 4 5 6 7 8 9 10 11] [1 2 4 5 6 7 8 9 10 11]{4} 3{7} [1 2 4 5 6 7 8 9 10 11]{4} [1 2 4 5 6 7 8 9 10 11] [1 2 4 5 6 7 8 9 10 11]{8} 3{1} [1 2 4 5 6 7 8 9 10 11]*) | ([1 2 4 5 6 7 8 9 10 11]* 3{2} [1 2 4 5 6 7 8 9 10 11]{8} [1 2 4 5 6 7 8 9 10 11] [1 2 4 5 6 7 8 9 10 11]{5} 3{3} [1 2 4 5 6 7 8 9 10 11]{7} [1 2 4 5 6 7 8 9 10 11] [1 2 4 5 6 7 8 9 10 11]{5} 3{4} [1 2 4 5 6 7 8 9 10 11]{6} [1 2 4 5 6 7 8 9 10 11] [1 2 4 5 6 7 8 9 10 11]{5} 3{5} [1 2 4 5 6 7 8 9 10 11]{5} [1 2 4 5 6 7 8 9 10 11] [1 2 4 5 6 7 8 9 10 11]{4} 3{6} [1 2 4 5 6 7 8 9 10 11]{5} [1 2 4 5 6 7 8 9 10 11] [1 2 4 5 6 7 8 9 10 11]{5} 3{4} [1 2 4 5 6 7 8 9 10 11]{6} [1 2 4 5 6 7 8 9 10 11] [1 2 4 5 6 7 8 9 10 11]{5} 3{3} [1 2 4 5 6 7 8 9 10 11]*) | ([1 2 4 5 6 7 8 9 10 11]* 3{1} [1 2 4 5 6 7 8 9 10 11]{8} [1 2 4 5 6 7 8 9 10 11] [1 2 4 5 6 7 8 9 10 11]{4} 3{7} [1 2 4 5 6 7 8 9 10 11]{4} [1 2 4 5 6 7 8 9 10 11] [1 2 4 5 6 7 8 9 10 11]{4} 3{7} [1 2 4 5 6 7 8 9 10 11]{4} [1 2 4 5 6 7 8 9 10 11] [1 2 4 5 6 7 8 9 10 11]{4} 3{6} [1 2 4 5 6 7 8 9 10 11]{5} [1 2 4 5 6 7 8 9 10 11] [1 2 4 5 6 7 8 9 10 11]{5} 3{4} [1 2 4 5 6 7 8 9 10 11]{6} [1 2 4 5 6 7 8 9 10 11] [1 2 4 5 6 7 8 9 10 11]{6} 3{2} [1 2 4 5 6 7 8 9 10 11]*) | ([1 2 4 5 6 7 8 9 10 11]* 3{3} [1 2 4 5 6 7 8 9 10 11]{7} [1 2 4 5 6 7 8 9 10 11] [1 2 4 5 6 7 8 9 10 11]{5} 3{4} [1 2 4 5 6 7 8 9 10 11]{6} [1 2 4 5 6 7 8 9 10 11] [1 2 4 5 6 7 8 9 10 11]{4} 3{6} [1 2 4 5 6 7 8 9 10 11]{5} [1 2 4 5 6 7 8 9 10 11] [1 2 4 5 6 7 8 9 10 11]{5} 3{5} [1 2 4 5 6 7 8 9 10 11]{5} [1 2 4 5 6 7 8 9 10 11] [1 2 4 5 6 7 8 9 10 11]{5} 3{4} [1 2 4 5 6 7 8 9 10 11]{6} [1 2 4 5 6 7 8 9 10 11] [1 2 4 5 6 7 8 9 10 11]{5} 3{3} [1 2 4 5 6 7 8 9 10 11]{7} [1 2 4 5 6 7 8 9 10 11] [1 2 4 5 6 7 8 9 10 11]{5} 3{2} [1 2 4 5 6 7 8 9 10 11]*) | ([1 2 4 5 6 7 8 9 10 11]* 3{2} [1 2 4 5 6 7 8 9 10 11]{7} [1 2 4 5 6 7 8 9 10 11] [1 2 4 5 6 7 8 9 10 11]{5} 3{4} [1 2 4 5 6 7 8 9 10 11]{6} [1 2 4 5 6 7 8 9 10 11] [1 2 4 5 6 7 8 9 10 11]{4} 3{6} [1 2 4 5 6 7 8 9 10 11]{5} [1 2 4 5 6 7 8 9 10 11] [1 2 4 5 6 7 8 9 10 11]{4} 3{7} [1 2 4 5 6 7 8 9 10 11]{4} [1 2 4 5 6 7 8 9 10 11] [1 2 4 5 6 7 8 9 10 11]{4} 3{7} [1 2 4 5 6 7 8 9 10 11]{4} [1 2 4 5 6 7 8 9 10 11] [1 2 4 5 6 7 8 9 10 11]{6} 3{1} [1 2 4 5 6 7 8 9 10 11]*) | ([1 2 4 5 6 7 8 9 10 11]* 3{2} [1 2 4 5 6 7 8 9 10 11]{5} [1 2 4 5 6 7 8 9 10 11] [1 2 4 5 6 7 8 9 10 11]{7} 3{3} [1 2 4 5 6 7 8 9 10 11]{5} [1 2 4 5 6 7 8 9 10 11] [1 2 4 5 6 7 8 9 10 11]{6} 3{4} [1 2 4 5 6 7 8 9 10 11]{5} [1 2 4 5 6 7 8 9 10 11] [1 2 4 5 6 7 8 9 10 11]{5} 3{5} [1 2 4 5 6 7 8 9 10 11]{5} [1 2 4 5 6 7 8 9 10 11] [1 2 4 5 6 7 8 9 10 11]{5} 3{6} [1 2 4 5 6 7 8 9 10 11]{4} [1 2 4 5 6 7 8 9 10 11] [1 2 4 5 6 7 8 9 10 11]{6} 3{4} [1 2 4 5 6 7 8 9 10 11]{5} [1 2 4 5 6 7 8 9 10 11] [1 2 4 5 6 7 8 9 10 11]{7} 3{3} [1 2 4 5 6 7 8 9 10 11]*) | ([1 2 4 5 6 7 8 9 10 11]* 3{1} [1 2 4 5 6 7 8 9 10 11]{6} [1 2 4 5 6 7 8 9 10 11] [1 2 4 5 6 7 8 9 10 11]{4} 3{7} [1 2 4 5 6 7 8 9 10 11]{4} [1 2 4 5 6 7 8 9 10 11] [1 2 4 5 6 7 8 9 10 11]{4} 3{7} [1 2 4 5 6 7 8 9 10 11]{4} [1 2 4 5 6 7 8 9 10 11] [1 2 4 5 6 7 8 9 10 11]{5} 3{6} [1 2 4 5 6 7 8 9 10 11]{4} [1 2 4 5 6 7 8 9 10 11] [1 2 4 5 6 7 8 9 10 11]{6} 3{4} [1 2 4 5 6 7 8 9 10 11]{5} [1 2 4 5 6 7 8 9 10 11] [1 2 4 5 6 7 8 9 10 11]{7} 3{2} [1 2 4 5 6 7 8 9 10 11]*) )",
    "( ([1 2 3 5 6 7 8 9 10 11]* 4{1} [1 2 3 5 6 7 8 9 10 11]{9} [1 2 3 5 6 7 8 9 10 11] [1 2 3 5 6 7 8 9 10 11]{5} 4{2} [1 2 3 5 6 7 8 9 10 11]{8} [1 2 3 5 6 7 8 9 10 11] [1 2 3 5 6 7 8 9 10 11]{5} 4{3} [1 2 3 5 6 7 8 9 10 11]{7} [1 2 3 5 6 7 8 9 10 11] [1 2 3 5 6 7 8 9 10 11]{5} 4{2} [1 2 3 5 6 7 8 9 10 11]*) | ([1 2 3 5 6 7 8 9 10 11]* 4{4} [1 2 3 5 6 7 8 9 10 11]{8} [1 2 3 5 6 7 8 9 10 11] [1 2 3 5 6 7 8 9 10 11]{3} 4{3} [1 2 3 5 6 7 8 9 10 11]{9} [1 2 3 5 6 7 8 9 10 11] [1 2 3 5 6 7 8 9 10 11]{4} 4{1} [1 2 3 5 6 7 8 9 10 11]*) | ([1 2 3 5 6 7 8 9 10 11]* 4{2} [1 2 3 5 6 7 8 9 10 11]{5} [1 2 3 5 6 7 8 9 10 11] [1 2 3 5 6 7 8 9 10 11]{7} 4{3} [1 2 3 5 6 7 8 9 10 11]{5} [1 2 3 5 6 7 8 9 10 11] [1 2 3 5 6 7 8 9 10 11]{8} 4{2} [1 2 3 5 6 7 8 9 10 11]{5} [1 2 3 5 6 7 8 9 10 11] [1 2 3 5 6 7 8 9 10 11]{9} 4{1} [1 2 3 5 6 7 8 9 10 11]*) | ([1 2 3 5 6 7 8 9 10 11]* 4{1} [1 2 3 5 6 7 8 9 10 11]{4} [1 2 3 5 6 7 8 9 10 11] [1 2 3 5 6 7 8 9 10 11]{9} 4{3} [1 2 3 5 6 7 8 9 10 11]{3} [1 2 3 5 6 7 8 9 10 11] [1 2 3 5 6 7 8 9 10 11]{8} 4{4} [1 2 3 5 6 7 8 9 10 11]*) | ([1 2 3 5 6 7 8 9 10 11]* 4{1} [1 2 3 5 6 7 8 9 10 11]{5} [1 2 3 5 6 7 8 9 10 11] [1 2 3 5 6 7 8 9 10 11]{8} 4{2} [1 2 3 5 6 7 8 9 10 11]{5} [1 2 3 5 6 7 8 9 10 11] [1 2 3 5 6 7 8 9 10 11]{7} 4{3} [1 2 3 5 6 7 8 9 10 11]{5} [1 2 3 5 6 7 8 9 10 11] [1 2 3 5 6 7 8 9 10 11]{8} 4{2} [1 2 3 5 6 7 8 9 10 11]*) | ([1 2 3 5 6 7 8 9 10 11]* 4{4} [1 2 3 5 6 7 8 9 10 11]{3} [1 2 3 5 6 7 8 9 10 11] [1 2 3 5 6 7 8 9 10 11]{9} 4{3} [1 2 3 5 6 7 8 9 10 11]{3} [1 2 3 5 6 7 8 9 10 11] [1 2 3 5 6 7 8 9 10 11]{10} 4{1} [1 2 3 5 6 7 8 9 10 11]*) | ([1 2 3 5 6 7 8 9 10 11]* 4{2} [1 2 3 5 6 7 8 9 10 11]{8} [1 2 3 5 6 7 8 9 10 11] [1 2 3 5 6 7 8 9 10 11]{5} 4{3} [1 2 3 5 6 7 8 9 10 11]{7} [1 2 3 5 6 7 8 9 10 11] [1 2 3 5 6 7 8 9 10 11]{5} 4{2} [1 2 3 5 6 7 8 9 10 11]{8} [1 2 3 5 6 7 8 9 10 11] [1 2 3 5 6 7 8 9 10 11]{5} 4{1} [1 2 3 5 6 7 8 9 10 11]*) | ([1 2 3 5 6 7 8 9 10 11]* 4{1} [1 2 3 5 6 7 8 9 10 11]{10} [1 2 3 5 6 7 8 9 10 11] [1 2 3 5 6 7 8 9 10 11]{3} 4{3} [1 2 3 5 6 7 8 9 10 11]{9} [1 2 3 5 6 7 8 9 10 11] [1 2 3 5 6 7 8 9 10 11]{3} 4{4} [1 2 3 5 6 7 8 9 10 11]*) )",
    "( ([1 2 3 4 6 7 8 9 10 11]* 5{3} [1 2 3 4 6 7 8 9 10 11]{5} [1 2 3 4 6 7 8 9 10 11] [1 2 3 4 6 7 8 9 10 11]{6} 5{5} [1 2 3 4 6 7 8 9 10 11]{4} [1 2 3 4 6 7 8 9 10 11] [1 2 3 4 6 7 8 9 10 11]{6} 5{8} [1 2 3 4 6 7 8 9 10 11]{1} [1 2 3 4 6 7 8 9 10 11] [1 2 3 4 6 7 8 9 10 11]{6} 5{9} [1 2 3 4 6 7 8 9 10 11]*) | ([1 2 3 4 6 7 8 9 10 11]* 5{3} [1 2 3 4 6 7 8 9 10 11]{12} [1 2 3 4 6 7 8 9 10 11] 5{4} [1 2 3 4 6 7 8 9 10 11]{11} [1 2 3 4 6 7 8 9 10 11] 5{4} [1 2 3 4 6 7 8 9 10 11]{11} [1 2 3 4 6 7 8 9 10 11] 5{4} [1 2 3 4 6 7 8 9 10 11]{11} [1 2 3 4 6 7 8 9 10 11] 5{3} [1 2 3 4 6 7 8 9 10 11]{12} [1 2 3 4 6 7 8 9 10 11] 5{2} [1 2 3 4 6 7 8 9 10 11]{13} [1 2 3 4 6 7 8 9 10 11] 5{2} [1 2 3 4 6 7 8 9 10 11]{13} [1 2 3 4 6 7 8 9 10 11] 5{2} [1 2 3 4 6 7 8 9 10 11]{13} [1 2 3 4 6 7 8 9 10 11] 5{1} [1 2 3 4 6 7 8 9 10 11]*) | ([1 2 3 4 6 7 8 9 10 11]* 5{9} [1 2 3 4 6 7 8 9 10 11]{6} [1 2 3 4 6 7 8 9 10 11] [1 2 3 4 6 7 8 9 10 11]{1} 5{8} [1 2 3 4 6 7 8 9 10 11]{6} [1 2 3 4 6 7 8 9 10 11] [1 2 3 4 6 7 8 9 10 11]{4} 5{5} [1 2 3 4 6 7 8 9 10 11]{6} [1 2 3 4 6 7 8 9 10 11] [1 2 3 4 6 7 8 9 10 11]{5} 5{3} [1 2 3 4 6 7 8 9 10 11]*) | ([1 2 3 4 6 7 8 9 10 11]* 5{1} [1 2 3 4 6 7 8 9 10 11] [1 2 3 4 6 7 8 9 10 11]{13} 5{2} [1 2 3 4 6 7 8 9 10 11] [1 2 3 4 6 7 8 9 10 11]{13} 5{2} [1 2 3 4 6 7 8 9 10 11] [1 2 3 4 6 7 8 9 10 11]{13} 5{2} [1 2 3 4 6 7 8 9 10 11] [1 2 3 4 6 7 8 9 10 11]{12} 5{3} [1 2 3 4 6 7 8 9 10 11] [1 2 3 4 6 7 8 9 10 11]{11} 5{4} [1 2 3 4 6 7 8 9 10 11] [1 2 3 4 6 7 8 9 10 11]{11} 5{4} [1 2 3 4 6 7 8 9 10 11] [1 2 3 4 6 7 8 9 10 11]{11} 5{4} [1 2 3 4 6 7 8 9 10 11] [1 2 3 4 6 7 8 9 10 11]{12} 5{3} [1 2 3 4 6 7 8 9 10 11]*) | ([1 2 3 4 6 7 8 9 10 11]* 5{3} [1 2 3 4 6 7 8 9 10 11]{7} [1 2 3 4 6 7 8 9 10 11] [1 2 3 4 6 7 8 9 10 11]{4} 5{5} [1 2 3 4 6 7 8 9 10 11]{6} [1 2 3 4 6 7 8 9 10 11] [1 2 3 4 6 7 8 9 10 11]{1} 5{8} [1 2 3 4 6 7 8 9 10 11]{6} [1 2 3 4 6 7 8 9 10 11] 5{9} [1 2 3 4 6 7 8 9 10 11]*) | ([1 2 3 4 6 7 8 9 10 11]* 5{3} [1 2 3 4 6 7 8 9 10 11] [1 2 3 4 6 7 8 9 10 11]{11} 5{4} [1 2 3 4 6 7 8 9 10 11] [1 2 3 4 6 7 8 9 10 11]{11} 5{4} [1 2 3 4 6 7 8 9 10 11] [1 2 3 4 6 7 8 9 10 11]{11} 5{4} [1 2 3 4 6 7 8 9 10 11] [1 2 3 4 6 7 8 9 10 11]{12} 5{3} [1 2 3 4 6 7 8 9 10 11] [1 2 3 4 6 7 8 9 10 11]{13} 5{2} [1 2 3 4 6 7 8 9 10 11] [1 2 3 4 6 7 8 9 10 11]{13} 5{2} [1 2 3 4 6 7 8 9 10 11] [1 2 3 4 6 7 8 9 10 11]{13} 5{2} [1 2 3 4 6 7 8 9 10 11] [1 2 3 4 6 7 8 9 10 11]{14} 5{1} [1 2 3 4 6 7 8 9 10 11]*) | ([1 2 3 4 6 7 8 9 10 11]* 5{9} [1 2 3 4 6 7 8 9 10 11] [1 2 3 4 6 7 8 9 10 11]{6} 5{8} [1 2 3 4 6 7 8 9 10 11]{1} [1 2 3 4 6 7 8 9 10 11] [1 2 3 4 6 7 8 9 10 11]{6} 5{5} [1 2 3 4 6 7 8 9 10 11]{4} [1 2 3 4 6 7 8 9 10 11] [1 2 3 4 6 7 8 9 10 11]{7} 5{3} [1 2 3 4 6 7 8 9 10 11]*) | ([1 2 3 4 6 7 8 9 10 11]* 5{1} [1 2 3 4 6 7 8 9 10 11]{14} [1 2 3 4 6 7 8 9 10 11] 5{2} [1 2 3 4 6 7 8 9 10 11]{13} [1 2 3 4 6 7 8 9 10 11] 5{2} [1 2 3 4 6 7 8 9 10 11]{13} [1 2 3 4 6 7 8 9 10 11] 5{2} [1 2 3 4 6 7 8 9 10 11]{13} [1 2 3 4 6 7 8 9 10 11] 5{3} [1 2 3 4 6 7 8 9 10 11]{12} [1 2 3 4 6 7 8 9 10 11] 5{4} [1 2 3 4 6 7 8 9 10 11]{11} [1 2 3 4 6 7 8 9 10 11] 5{4} [1 2 3 4 6 7 8 9 10 11]{11} [1 2 3 4 6 7 8 9 10 11] 5{4} [1 2 3 4 6 7 8 9 10 11]{11} [1 2 3 4 6 7 8 9 10 11] 5{3} [1 2 3 4 6 7 8 9 10 11]*) )",
    "( ([1 2 3 4 5 7 8 9 10 11]* 6{5} [1 2 3 4 5 7 8 9 10 11]{10} [1 2 3 4 5 7 8 9 10 11] 6{1} [1 2 3 4 5 7 8 9 10 11]{2} 6{2} [1 2 3 4 5 7 8 9 10 11]{10} [1 2 3 4 5 7 8 9 10 11] [1 2 3 4 5 7 8 9 10 11]{3} 6{2} [1 2 3 4 5 7 8 9 10 11]{10} [1 2 3 4 5 7 8 9 10 11] [1 2 3 4 5 7 8 9 10 11]{4} 6{1} [1 2 3 4 5 7 8 9 10 11]{10} [1 2 3 4 5 7 8 9 10 11] [1 2 3 4 5 7 8 9 10 11]{4} 6{1} [1 2 3 4 5 7 8 9 10 11]*) | ([1 2 3 4 5 7 8 9 10 11]* 6{2} [1 2 3 4 5 7 8 9 10 11] [1 2 3 4 5 7 8 9 10 11]{14} 6{1} [1 2 3 4 5 7 8 9 10 11] [1 2 3 4 5 7 8 9 10 11]{14} 6{1} [1 2 3 4 5 7 8 9 10 11] [1 2 3 4 5 7 8 9 10 11]{12} 6{3} [1 2 3 4 5 7 8 9 10 11] [1 2 3 4 5 7 8 9 10 11]{10} 6{5} [1 2 3 4 5 7 8 9 10 11]*) | ([1 2 3 4 5 7 8 9 10 11]* 6{1} [1 2 3 4 5 7 8 9 10 11]{4} [1 2 3 4 5 7 8 9 10 11] [1 2 3 4 5 7 8 9 10 11]{10} 6{1} [1 2 3 4 5 7 8 9 10 11]{4} [1 2 3 4 5 7 8 9 10 11] [1 2 3 4 5 7 8 9 10 11]{10} 6{2} [1 2 3 4 5 7 8 9 10 11]{3} [1 2 3 4 5 7 8 9 10 11] [1 2 3 4 5 7 8 9 10 11]{10} 6{2} [1 2 3 4 5 7 8 9 10 11]{2} 6{1} [1 2 3 4 5 7 8 9 10 11] [1 2 3 4 5 7 8 9 10 11]{10} 6{5} [1 2 3 4 5 7 8 9 10 11]*) | ([1 2 3 4 5 7 8 9 10 11]* 6{5} [1 2 3 4 5 7 8 9 10 11]{10} [1 2 3 4 5 7 8 9 10 11] 6{3} [1 2 3 4 5 7 8 9 10 11]{12} [1 2 3 4 5 7 8 9 10 11] 6{1} [1 2 3 4 5 7 8 9 10 11]{14} [1 2 3 4 5 7 8 9 10 11] 6{1} [1 2 3 4 5 7 8 9 10 11]{14} [1 2 3 4 5 7 8 9 10 11] 6{2} [1 2 3 4 5 7 8 9 10 11]*) | ([1 2 3 4 5 7 8 9 10 11]* 6{5} [1 2 3 4 5 7 8 9 10 11] [1 2 3 4 5 7 8 9 10 11]{10} 6{2} [1 2 3 4 5 7 8 9 10 11]{2} 6{1} [1 2 3 4 5 7 8 9 10 11] [1 2 3 4 5 7 8 9 10 11]{10} 6{2} [1 2 3 4 5 7 8 9 10 11]{3} [1 2 3 4 5 7 8 9 10 11] [1 2 3 4 5 7 8 9 10 11]{10} 6{1} [1 2 3 4 5 7 8 9 10 11]{4} [1 2 3 4 5 7 8 9 10 11] [1 2 3 4 5 7 8 9 10 11]{10} 6{1} [1 2 3 4 5 7 8 9 10 11]*) | ([1 2 3 4 5 7 8 9 10 11]* 6{2} [1 2 3 4 5 7 8 9 10 11]{13} [1 2 3 4 5 7 8 9 10 11] 6{1} [1 2 3 4 5 7 8 9 10 11]{14} [1 2 3 4 5 7 8 9 10 11] 6{1} [1 2 3 4 5 7 8 9 10 11]{14} [1 2 3 4 5 7 8 9 10 11] 6{3} [1 2 3 4 5 7 8 9 10 11]{12} [1 2 3 4 5 7 8 9 10 11] 6{5} [1 2 3 4 5 7 8 9 10 11]*) | ([1 2 3 4 5 7 8 9 10 11]* 6{1} [1 2 3 4 5 7 8 9 10 11]{10} [1 2 3 4 5 7 8 9 10 11] [1 2 3 4 5 7 8 9 10 11]{4} 6{1} [1 2 3 4 5 7 8 9 10 11]{10} [1 2 3 4 5 7 8 9 10 11] [1 2 3 4 5 7 8 9 10 11]{3} 6{2} [1 2 3 4 5 7 8 9 10 11]{10} [1 2 3 4 5 7 8 9 10 11] 6{1} [1 2 3 4 5 7 8 9 10 11]{2} 6{2} [1 2 3 4 5 7 8 9 10 11]{10} [1 2 3 4 5 7 8 9 10 11] 6{5} [1 2 3 4 5 7 8 9 10 11]*) | ([1 2 3 4 5 7 8 9 10 11]* 6{5} [1 2 3 4 5 7 8 9 10 11] [1 2 3 4 5 7 8 9 10 11]{12} 6{3} [1 2 3 4 5 7 8 9 10 11] [1 2 3 4 5 7 8 9 10 11]{14} 6{1} [1 2 3 4 5 7 8 9 10 11] [1 2 3 4 5 7 8 9 10 11]{14} 6{1} [1 2 3 4 5 7 8 9 10 11] [1 2 3 4 5 7 8 9 10 11]{13} 6{2} [1 2 3 4 5 7 8 9 10 11]*) )",
    "( ([1 2 3 4 5 6 8 9 10 11]* 7{2} [1 2 3 4 5 6 8 9 10 11]{12} [1 2 3 4 5 6 8 9 10 11] 7{3} [1 2 3 4 5 6 8 9 10 11]{12} [1 2 3 4 5 6 8 9 10 11] 7{4} [1 2 3 4 5 6 8 9 10 11]{11} [1 2 3 4 5 6 8 9 10 11] 7{4} [1 2 3 4 5 6 8 9 10 11]{11} [1 2 3 4 5 6 8 9 10 11] 7{4} [1 2 3 4 5 6 8 9 10 11]{11} [1 2 3 4 5 6 8 9 10 11] 7{1} [1 2 3 4 5 6 8 9 10 11]{1} 7{1} [1 2 3 4 5 6 8 9 10 11]*) | ([1 2 3 4 5 6 8 9 10 11]* 7{5} [1 2 3 4 5 6 8 9 10 11]{2} [1 2 3 4 5 6 8 9 10 11] [1 2 3 4 5 6 8 9 10 11]{9} 7{5} [1 2 3 4 5 6 8 9 10 11]{1} [1 2 3 4 5 6 8 9 10 11] [1 2 3 4 5 6 8 9 10 11]{8} 7{6} [1 2 3 4 5 6 8 9 10 11]{1} [1 2 3 4 5 6 8 9 10 11] [1 2 3 4 5 6 8 9 10 11]{9} 7{3} [1 2 3 4 5 6 8 9 10 11]*) | ([1 2 3 4 5 6 8 9 10 11]* 7{1} [1 2 3 4 5 6 8 9 10 11]{1} 7{1} [1 2 3 4 5 6 8 9 10 11] [1 2 3 4 5 6 8 9 10 11]{11} 7{4} [1 2 3 4 5 6 8 9 10 11] [1 2 3 4 5 6 8 9 10 11]{11} 7{4} [1 2 3 4 5 6 8 9 10 11] [1 2 3 4 5 6 8 9 10 11]{11} 7{4} [1 2 3 4 5 6 8 9 10 11] [1 2 3 4 5 6 8 9 10 11]{12} 7{3} [1 2 3 4 5 6 8 9 10 11] [1 2 3 4 5 6 8 9 10 11]{12} 7{2} [1 2 3 4 5 6 8 9 10 11]*) | ([1 2 3 4 5 6 8 9 10 11]* 7{3} [1 2 3 4 5 6 8 9 10 11]{9} [1 2 3 4 5 6 8 9 10 11] [1 2 3 4 5 6 8 9 10 11]{1} 7{6} [1 2 3 4 5 6 8 9 10 11]{8} [1 2 3 4 5 6 8 9 10 11] [1 2 3 4 5 6 8 9 10 11]{1} 7{5} [1 2 3 4 5 6 8 9 10 11]{9} [1 2 3 4 5 6 8 9 10 11] [1 2 3 4 5 6 8 9 10 11]{2} 7{5} [1 2 3 4 5 6 8 9 10 11]*) | ([1 2 3 4 5 6 8 9 10 11]* 7{2} [1 2 3 4 5 6 8 9 10 11]{1} [1 2 3 4 5 6 8 9 10 11] [1 2 3 4 5 6 8 9 10 11]{12} 7{3} [1 2 3 4 5 6 8 9 10 11] [1 2 3 4 5 6 8 9 10 11]{11} 7{4} [1 2 3 4 5 6 8 9 10 11] [1 2 3 4 5 6 8 9 10 11]{11} 7{4} [1 2 3 4 5 6 8 9 10 11] [1 2 3 4 5 6 8 9 10 11]{11} 7{4} [1 2 3 4 5 6 8 9 10 11] [1 2 3 4 5 6 8 9 10 11]{12} 7{1} [1 2 3 4 5 6 8 9 10 11]{1} 7{1} [1 2 3 4 5 6 8 9 10 11]*) | ([1 2 3 4 5 6 8 9 10 11]* 7{5} [1 2 3 4 5 6 8 9 10 11]{8} [1 2 3 4 5 6 8 9 10 11] [1 2 3 4 5 6 8 9 10 11]{1} 7{5} [1 2 3 4 5 6 8 9 10 11]{9} [1 2 3 4 5 6 8 9 10 11] [1 2 3 4 5 6 8 9 10 11]{1} 7{6} [1 2 3 4 5 6 8 9 10 11]{8} [1 2 3 4 5 6 8 9 10 11] [1 2 3 4 5 6 8 9 10 11]{3} 7{3} [1 2 3 4 5 6 8 9 10 11]*) | ([1 2 3 4 5 6 8 9 10 11]* 7{1} [1 2 3 4 5 6 8 9 10 11]{1} 7{1} [1 2 3 4 5 6 8 9 10 11]{12} [1 2 3 4 5 6 8 9 10 11] 7{4} [1 2 3 4 5 6 8 9 10 11]{11} [1 2 3 4 5 6 8 9 10 11] 7{4} [1 2 3 4 5 6 8 9 10 11]{11} [1 2 3 4 5 6 8 9 10 11] 7{4} [1 2 3 4 5 6 8 9 10 11]{11} [1 2 3 4 5 6 8 9 10 11] 7{3} [1 2 3 4 5 6 8 9 10 11]{12} [1 2 3 4 5 6 8 9 10 11] [1 2 3 4 5 6 8 9 10 11]{1} 7{2} [1 2 3 4 5 6 8 9 10 11]*) | ([1 2 3 4 5 6 8 9 10 11]* 7{3} [1 2 3 4 5 6 8 9 10 11]{3} [1 2 3 4 5 6 8 9 10 11] [1 2 3 4 5 6 8 9 10 11]{8} 7{6} [1 2 3 4 5 6 8 9 10 11]{1} [1 2 3 4 5 6 8 9 10 11] [1 2 3 4 5 6 8 9 10 11]{9} 7{5} [1 2 3 4 5 6 8 9 10 11]{1} [1 2 3 4 5 6 8 9 10 11] [1 2 3 4 5 6 8 9 10 11]{8} 7{5} [1 2 3 4 5 6 8 9 10 11]*) )",
    "( ([1 2 3 4 5 6 7 9 10 11]* 8{4} [1 2 3 4 5 6 7 9 10 11] [1 2 3 4 5 6 7 9 10 11]{10} 8{5} [1 2 3 4 5 6 7 9 10 11] [1 2 3 4 5 6 7 9 10 11]{10} 8{5} [1 2 3 4 5 6 7 9 10 11] [1 2 3 4 5 6 7 9 10 11]{9} 8{4} [1 2 3 4 5 6 7 9 10 11]*) | ([1 2 3 4 5 6 7 9 10 11]* 8{1} [1 2 3 4 5 6 7 9 10 11]{3} [1 2 3 4 5 6 7 9 10 11] [1 2 3 4 5 6 7 9 10 11]{11} 8{3} [1 2 3 4 5 6 7 9 10 11]{1} [1 2 3 4 5 6 7 9 10 11] [1 2 3 4 5 6 7 9 10 11]{11} 8{4} [1 2 3 4 5 6 7 9 10 11] [1 2 3 4 5 6 7 9 10 11]{11} 8{4} [1 2 3 4 5 6 7 9 10 11] [1 2 3 4 5 6 7 9 10 11]{12} 8{3} [1 2 3 4 5 6 7 9 10 11] [1 2 3 4 5 6 7 9 10 11]{12} 8{3} [1 2 3 4 5 6 7 9 10 11]*) | ([1 2 3 4 5 6 7 9 10 11]* 8{4} [1 2 3 4 5 6 7 9 10 11]{9} [1 2 3 4 5 6 7 9 10 11] 8{5} [1 2 3 4 5 6 7 9 10 11]{10} [1 2 3 4 5 6 7 9 10 11] 8{5} [1 2 3 4 5 6 7 9 10 11]{10} [1 2 3 4 5 6 7 9 10 11] 8{4} [1 2 3 4 5 6 7 9 10 11]*) | ([1 2 3 4 5 6 7 9 10 11]* 8{3} [1 2 3 4 5 6 7 9 10 11]{12} [1 2 3 4 5 6 7 9 10 11] 8{3} [1 2 3 4 5 6 7 9 10 11]{12} [1 2 3 4 5 6 7 9 10 11] 8{4} [1 2 3 4 5 6 7 9 10 11]{11} [1 2 3 4 5 6 7 9 10 11] 8{4} [1 2 3 4 5 6 7 9 10 11]{11} [1 2 3 4 5 6 7 9 10 11] [1 2 3 4 5 6 7 9 10 11]{1} 8{3} [1 2 3 4 5 6 7 9 10 11]{11} [1 2 3 4 5 6 7 9 10 11] [1 2 3 4 5 6 7 9 10 11]{3} 8{1} [1 2 3 4 5 6 7 9 10 11]*) | ([1 2 3 4 5 6 7 9 10 11]* 8{4} [1 2 3 4 5 6 7 9 10 11]{11} [1 2 3 4 5 6 7 9 10 11] 8{5} [1 2 3 4 5 6 7 9 10 11]{10} [1 2 3 4 5 6 7 9 10 11] 8{5} [1 2 3 4 5 6 7 9 10 11]{10} [1 2 3 4 5 6 7 9 10 11] [1 2 3 4 5 6 7 9 10 11]{2} 8{4} [1 2 3 4 5 6 7 9 10 11]*) | ([1 2 3 4 5 6 7 9 10 11]* 8{1} [1 2 3 4 5 6 7 9 10 11]{11} [1 2 3 4 5 6 7 9 10 11] [1 2 3 4 5 6 7 9 10 11]{1} 8{3} [1 2 3 4 5 6 7 9 10 11]{11} [1 2 3 4 5 6 7 9 10 11] 8{4} [1 2 3 4 5 6 7 9 10 11]{11} [1 2 3 4 5 6 7 9 10 11] 8{4} [1 2 3 4 5 6 7 9 10 11]{11} [1 2 3 4 5 6 7 9 10 11] 8{3} [1 2 3 4 5 6 7 9 10 11]{12} [1 2 3 4 5 6 7 9 10 11] 8{3} [1 2 3 4 5 6 7 9 10 11]*) | ([1 2 3 4 5 6 7 9 10 11]* 8{4} [1 2 3 4 5 6 7 9 10 11]{2} [1 2 3 4 5 6 7 9 10 11] [1 2 3 4 5 6 7 9 10 11]{10} 8{5} [1 2 3 4 5 6 7 9 10 11] [1 2 3 4 5 6 7 9 10 11]{10} 8{5} [1 2 3 4 5 6 7 9 10 11] [1 2 3 4 5 6 7 9 10 11]{11} 8{4} [1 2 3 4 5 6 7 9 10 11]*) | ([1 2 3 4 5 6 7 9 10 11]* 8{3} [1 2 3 4 5 6 7 9 10 11] [1 2 3 4 5 6 7 9 10 11]{12} 8{3} [1 2 3 4 5 6 7 9 10 11] [1 2 3 4 5 6 7 9 10 11]{11} 8{4} [1 2 3 4 5 6 7 9 10 11] [1 2 3 4 5 6 7 9 10 11]{11} 8{4} [1 2 3 4 5 6 7 9 10 11] [1 2 3 4 5 6 7 9 10 11]{11} 8{3} [1 2 3 4 5 6 7 9 10 11]{1} [1 2 3 4 5 6 7 9 10 11] [1 2 3 4 5 6 7 9 10 11]{11} 8{1} [1 2 3 4 5 6 7 9 10 11]*) )",
    "( ([1 2 3 4 5 6 7 8 10 11]* 9{6} [1 2 3 4 5 6 7 8 10 11]{4} [1 2 3 4 5 6 7 8 10 11] [1 2 3 4 5 6 7 8 10 11]{5} 9{5} [1 2 3 4 5 6 7 8 10 11]{5} [1 2 3 4 5 6 7 8 10 11] [1 2 3 4 5 6 7 8 10 11]{5} 9{5} [1 2 3 4 5 6 7 8 10 11]{5} [1 2 3 4 5 6 7 8 10 11] [1 2 3 4 5 6 7 8 10 11]{5} 9{4} [1 2 3 4 5 6 7 8 10 11]{6} [1 2 3 4 5 6 7 8 10 11] [1 2 3 4 5 6 7 8 10 11]{5} 9{2} [1 2 3 4 5 6 7 8 10 11]{8} [1 2 3 4 5 6 7 8 10 11] [1 2 3 4 5 6 7 8 10 11]{4} 9{2} [1 2 3 4 5 6 7 8 10 11]*) | ([1 2 3 4 5 6 7 8 10 11]* 9{1} [1 2 3 4 5 6 7 8 10 11]{5} [1 2 3 4 5 6 7 8 10 11] [1 2 3 4 5 6 7 8 10 11]{9} 9{6} [1 2 3 4 5 6 7 8 10 11] [1 2 3 4 5 6 7 8 10 11]{10} 9{5} [1 2 3 4 5 6 7 8 10 11] [1 2 3 4 5 6 7 8 10 11]{11} 9{4} [1 2 3 4 5 6 7 8 10 11] [1 2 3 4 5 6 7 8 10 11]{11} 9{4} [1 2 3 4 5 6 7 8 10 11] [1 2 3 4 5 6 7 8 10 11]{12} 9{3} [1 2 3 4 5 6 7 8 10 11] [1 2 3 4 5 6 7 8 10 11]{14} 9{1} [1 2 3 4 5 6 7 8 10 11]*) | ([1 2 3 4 5 6 7 8 10 11]* 9{2} [1 2 3 4 5 6 7 8 10 11]{4} [1 2 3 4 5 6 7 8 10 11] [1 2 3 4 5 6 7 8 10 11]{8} 9{2} [1 2 3 4 5 6 7 8 10 11]{5} [1 2 3 4 5 6 7 8 10 11] [1 2 3 4 5 6 7 8 10 11]{6} 9{4} [1 2 3 4 5 6 7 8 10 11]{5} [1 2 3 4 5 6 7 8 10 11] [1 2 3 4 5 6 7 8 10 11]{5} 9{5} [1 2 3 4 5 6 7 8 10 11]{5} [1 2 3 4 5 6 7 8 10 11] [1 2 3 4 5 6 7 8 10 11]{5} 9{5} [1 2 3 4 5 6 7 8 10 11]{5} [1 2 3 4 5 6 7 8 10 11] [1 2 3 4 5 6 7 8 10 11]{4} 9{6} [1 2 3 4 5 6 7 8 10 11]*) | ([1 2 3 4 5 6 7 8 10 11]* 9{1} [1 2 3 4 5 6 7 8 10 11]{14} [1 2 3 4 5 6 7 8 10 11] 9{3} [1 2 3 4 5 6 7 8 10 11]{12} [1 2 3 4 5 6 7 8 10 11] 9{4} [1 2 3 4 5 6 7 8 10 11]{11} [1 2 3 4 5 6 7 8 10 11] 9{4} [1 2 3 4 5 6 7 8 10 11]{11} [1 2 3 4 5 6 7 8 10 11] 9{5} [1 2 3 4 5 6 7 8 10 11]{10} [1 2 3 4 5 6 7 8 10 11] 9{6} [1 2 3 4 5 6 7 8 10 11]{9} [1 2 3 4 5 6 7 8 10 11] [1 2 3 4 5 6 7 8 10 11]{5} 9{1} [1 2 3 4 5 6 7 8 10 11]*) | ([1 2 3 4 5 6 7 8 10 11]* 9{6} [1 2 3 4 5 6 7 8 10 11]{5} [1 2 3 4 5 6 7 8 10 11] [1 2 3 4 5 6 7 8 10 11]{5} 9{5} [1 2 3 4 5 6 7 8 10 11]{5} [1 2 3 4 5 6 7 8 10 11] [1 2 3 4 5 6 7 8 10 11]{5} 9{5} [1 2 3 4 5 6 7 8 10 11]{5} [1 2 3 4 5 6 7 8 10 11] [1 2 3 4 5 6 7 8 10 11]{6} 9{4} [1 2 3 4 5 6 7 8 10 11]{5} [1 2 3 4 5 6 7 8 10 11] [1 2 3 4 5 6 7 8 10 11]{8} 9{2} [1 2 3 4 5 6 7 8 10 11]{5} [1 2 3 4 5 6 7 8 10 11] [1 2 3 4 5 6 7 8 10 11]{9} 9{2} [1 2 3 4 5 6 7 8 10 11]*) | ([1 2 3 4 5 6 7 8 10 11]* 9{1} [1 2 3 4 5 6 7 8 10 11]{9} [1 2 3 4 5 6 7 8 10 11] 9{6} [1 2 3 4 5 6 7 8 10 11]{9} [1 2 3 4 5 6 7 8 10 11] 9{5} [1 2 3 4 5 6 7 8 10 11]{10} [1 2 3 4 5 6 7 8 10 11] 9{4} [1 2 3 4 5 6 7 8 10 11]{11} [1 2 3 4 5 6 7 8 10 11] 9{4} [1 2 3 4 5 6 7 8 10 11]{11} [1 2 3 4 5 6 7 8 10 11] 9{3} [1 2 3 4 5 6 7 8 10 11]{12} [1 2 3 4 5 6 7 8 10 11] 9{1} [1 2 3 4 5 6 7 8 10 11]*) | ([1 2 3 4 5 6 7 8 10 11]* 9{2} [1 2 3 4 5 6 7 8 10 11]{9} [1 2 3 4 5 6 7 8 10 11] [1 2 3 4 5 6 7 8 10 11]{5} 9{2} [1 2 3 4 5 6 7 8 10 11]{8} [1 2 3 4 5 6 7 8 10 11] [1 2 3 4 5 6 7 8 10 11]{5} 9{4} [1 2 3 4 5 6 7 8 10 11]{6} [1 2 3 4 5 6 7 8 10 11] [1 2 3 4 5 6 7 8 10 11]{5} 9{5} [1 2 3 4 5 6 7 8 10 11]{5} [1 2 3 4 5 6 7 8 10 11] [1 2 3 4 5 6 7 8 10 11]{5} 9{5} [1 2 3 4 5 6 7 8 10 11]{5} [1 2 3 4 5 6 7 8 10 11] [1 2 3 4 5 6 7 8 10 11]{5} 9{6} [1 2 3 4 5 6 7 8 10 11]*) | ([1 2 3 4 5 6 7 8 10 11]* 9{1} [1 2 3 4 5 6 7 8 10 11] [1 2 3 4 5 6 7 8 10 11]{12} 9{3} [1 2 3 4 5 6 7 8 10 11] [1 2 3 4 5 6 7 8 10 11]{11} 9{4} [1 2 3 4 5 6 7 8 10 11] [1 2 3 4 5 6 7 8 10 11]{11} 9{4} [1 2 3 4 5 6 7 8 10 11] [1 2 3 4 5 6 7 8 10 11]{10} 9{5} [1 2 3 4 5 6 7 8 10 11] [1 2 3 4 5 6 7 8 10 11]{9} 9{6} [1 2 3 4 5 6 7 8 10 11] [1 2 3 4 5 6 7 8 10 11]{9} 9{1} [1 2 3 4 5 6 7 8 10 11]*) )",
    "( ([1 2 3 4 5 6 7 8 9 11]* 10{2} [1 2 3 4 5 6 7 8 9 11] [1 2 3 4 5 6 7 8 9 11]{10} 10{5} [1 2 3 4 5 6 7 8 9 11] [1 2 3 4 5 6 7 8 9 11]{10} 10{5} [1 2 3 4 5 6 7 8 9 11] [1 2 3 4 5 6 7 8 9 11]{11} 10{4} [1 2 3 4 5 6 7 8 9 11] [1 2 3 4 5 6 7 8 9 11]{10} 10{5} [1 2 3 4 5 6 7 8 9 11] [1 2 3 4 5 6 7 8 9 11]{10} 10{5} [1 2 3 4 5 6 7 8 9 11] [1 2 3 4 5 6 7 8 9 11]{10} 10{5} [1 2 3 4 5 6 7 8 9 11] [1 2 3 4 5 6 7 8 9 11]{10} 10{5} [1 2 3 4 5 6 7 8 9 11] [1 2 3 4 5 6 7 8 9 11]{10} 10{5} [1 2 3 4 5 6 7 8 9 11] [1 2 3 4 5 6 7 8 9 11]{11} 10{4} [1 2 3 4 5 6 7 8 9 11] [1 2 3 4 5 6 7 8 9 11]{14} 10{1} [1 2 3 4 5 6 7 8 9 11]*) | ([1 2 3 4 5 6 7 8 9 11]* 10{5} [1 2 3 4 5 6 7 8 9 11]{1} 10{2} [1 2 3 4 5 6 7 8 9 11]{4} [1 2 3 4 5 6 7 8 9 11] [1 2 3 4 5 6 7 8 9 11]{2} 10{9} [1 2 3 4 5 6 7 8 9 11]{4} [1 2 3 4 5 6 7 8 9 11] [1 2 3 4 5 6 7 8 9 11]{2} 10{9} [1 2 3 4 5 6 7 8 9 11]{4} [1 2 3 4 5 6 7 8 9 11] [1 2 3 4 5 6 7 8 9 11]{2} 10{10} [1 2 3 4 5 6 7 8 9 11]{3} [1 2 3 4 5 6 7 8 9 11] [1 2 3 4 5 6 7 8 9 11]{1} 10{11} [1 2 3 4 5 6 7 8 9 11]*) | ([1 2 3 4 5 6 7 8 9 11]* 10{1} [1 2 3 4 5 6 7 8 9 11]{14} [1 2 3 4 5 6 7 8 9 11] 10{4} [1 2 3 4 5 6 7 8 9 11]{11} [1 2 3 4 5 6 7 8 9 11] 10{5} [1 2 3 4 5 6 7 8 9 11]{10} [1 2 3 4 5 6 7 8 9 11] 10{5} [1 2 3 4 5 6 7 8 9 11]{10} [1 2 3 4 5 6 7 8 9 11] 10{5} [1 2 3 4 5 6 7 8 9 11]{10} [1 2 3 4 5 6 7 8 9 11] 10{5} [1 2 3 4 5 6 7 8 9 11]{10} [1 2 3 4 5 6 7 8 9 11] 10{5} [1 2 3 4 5 6 7 8 9 11]{10} [1 2 3 4 5 6 7 8 9 11] 10{4} [1 2 3 4 5 6 7 8 9 11]{11} [1 2 3 4 5 6 7 8 9 11] 10{5} [1 2 3 4 5 6 7 8 9 11]{10} [1 2 3 4 5 6 7 8 9 11] 10{5} [1 2 3 4 5 6 7 8 9 11]{10} [1 2 3 4 5 6 7 8 9 11] 10{2} [1 2 3 4 5 6 7 8 9 11]*) | ([1 2 3 4 5 6 7 8 9 11]* 10{11} [1 2 3 4 5 6 7 8 9 11]{1} [1 2 3 4 5 6 7 8 9 11] [1 2 3 4 5 6 7 8 9 11]{3} 10{10} [1 2 3 4 5 6 7 8 9 11]{2} [1 2 3 4 5 6 7 8 9 11] [1 2 3 4 5 6 7 8 9 11]{4} 10{9} [1 2 3 4 5 6 7 8 9 11]{2} [1 2 3 4 5 6 7 8 9 11] [1 2 3 4 5 6 7 8 9 11]{4} 10{9} [1 2 3 4 5 6 7 8 9 11]{2} [1 2 3 4 5 6 7 8 9 11] [1 2 3 4 5 6 7 8 9 11]{4} 10{2} [1 2 3 4 5 6 7 8 9 11]{1} 10{5} [1 2 3 4 5 6 7 8 9 11]*) | ([1 2 3 4 5 6 7 8 9 11]* 10{2} [1 2 3 4 5 6 7 8 9 11]{13} [1 2 3 4 5 6 7 8 9 11] 10{5} [1 2 3 4 5 6 7 8 9 11]{10} [1 2 3 4 5 6 7 8 9 11] 10{5} [1 2 3 4 5 6 7 8 9 11]{10} [1 2 3 4 5 6 7 8 9 11] 10{4} [1 2 3 4 5 6 7 8 9 11]{11} [1 2 3 4 5 6 7 8 9 11] 10{5} [1 2 3 4 5 6 7 8 9 11]{10} [1 2 3 4 5 6 7 8 9 11] 10{5} [1 2 3 4 5 6 7 8 9 11]{10} [1 2 3 4 5 6 7 8 9 11] 10{5} [1 2 3 4 5 6 7 8 9 11]{10} [1 2 3 4 5 6 7 8 9 11] 10{5} [1 2 3 4 5 6 7 8 9 11]{10} [1 2 3 4 5 6 7 8 9 11] 10{5} [1 2 3 4 5 6 7 8 9 11]{10} [1 2 3 4 5 6 7 8 9 11] 10{4} [1 2 3 4 5 6 7 8 9 11]{11} [1 2 3 4 5 6 7 8 9 11] 10{1} [1 2 3 4 5 6 7 8 9 11]*) | ([1 2 3 4 5 6 7 8 9 11]* 10{2} [1 2 3 4 5 6 7 8 9 11]{1} 10{5} [1 2 3 4 5 6 7 8 9 11]{3} [1 2 3 4 5 6 7 8 9 11] [1 2 3 4 5 6 7 8 9 11]{4} 10{9} [1 2 3 4 5 6 7 8 9 11]{2} [1 2 3 4 5 6 7 8 9 11] [1 2 3 4 5 6 7 8 9 11]{4} 10{9} [1 2 3 4 5 6 7 8 9 11]{2} [1 2 3 4 5 6 7 8 9 11] [1 2 3 4 5 6 7 8 9 11]{3} 10{10} [1 2 3 4 5 6 7 8 9 11]{2} [1 2 3 4 5 6 7 8 9 11] [1 2 3 4 5 6 7 8 9 11]{3} 10{11} [1 2 3 4 5 6 7 8 9 11]*) | ([1 2 3 4 5 6 7 8 9 11]* 10{1} [1 2 3 4 5 6 7 8 9 11] [1 2 3 4 5 6 7 8 9 11]{11} 10{4} [1 2 3 4 5 6 7 8 9 11] [1 2 3 4 5 6 7 8 9 11]{10} 10{5} [1 2 3 4 5 6 7 8 9 11] [1 2 3 4 5 6 7 8 9 11]{10} 10{5} [1 2 3 4 5 6 7 8 9 11] [1 2 3 4 5 6 7 8 9 11]{10} 10{5} [1 2 3 4 5 6 7 8 9 11] [1 2 3 4 5 6 7 8 9 11]{10} 10{5} [1 2 3 4 5 6 7 8 9 11] [1 2 3 4 5 6 7 8 9 11]{10} 10{5} [1 2 3 4 5 6 7 8 9 11] [1 2 3 4 5 6 7 8 9 11]{11} 10{4} [1 2 3 4 5 6 7 8 9 11] [1 2 3 4 5 6 7 8 9 11]{10} 10{5} [1 2 3 4 5 6 7 8 9 11] [1 2 3 4 5 6 7 8 9 11]{10} 10{5} [1 2 3 4 5 6 7 8 9 11] [1 2 3 4 5 6 7 8 9 11]{13} 10{2} [1 2 3 4 5 6 7 8 9 11]*) | ([1 2 3 4 5 6 7 8 9 11]* 10{11} [1 2 3 4 5 6 7 8 9 11]{3} [1 2 3 4 5 6 7 8 9 11] [1 2 3 4 5 6 7 8 9 11]{2} 10{10} [1 2 3 4 5 6 7 8 9 11]{3} [1 2 3 4 5 6 7 8 9 11] [1 2 3 4 5 6 7 8 9 11]{2} 10{9} [1 2 3 4 5 6 7 8 9 11]{4} [1 2 3 4 5 6 7 8 9 11] [1 2 3 4 5 6 7 8 9 11]{2} 10{9} [1 2 3 4 5 6 7 8 9 11]{4} [1 2 3 4 5 6 7 8 9 11] [1 2 3 4 5 6 7 8 9 11]{3} 10{5} [1 2 3 4 5 6 7 8 9 11]{1} 10{2} [1 2 3 4 5 6 7 8 9 11]*) )",
];
